38
1 0 53
2 0 39
2 1 26
3 0 29
3 1 29
3 2 29
4 0 51
4 1 40
4 2 46
4 3 27
5 0 35
5 1 46
5 2 28
5 3 8
5 4 15
6 0 57
6 1 1
6 2 45
6 3 27
6 4 45
6 5 4
7 0 9
7 1 16
7 2 4
7 3 21
7 4 7
7 5 18
7 6 54
8 0 15
8 1 36
8 2 20
8 3 18
8 4 40
8 5 27
8 6 47
8 7 50
9 0 38
9 1 19
9 2 42
9 3 44
9 4 49
9 5 47
9 6 37
9 7 52
9 8 38
10 0 9
10 1 52
10 2 9
10 3 15
10 4 30
10 5 29
10 6 28
10 7 35
10 8 22
10 9 41
11 0 55
11 1 40
11 2 45
11 3 43
11 4 1
11 5 12
11 6 26
11 7 10
11 8 49
11 9 33
11 10 46
12 0 27
12 1 15
12 2 52
12 3 39
12 4 15
12 5 29
12 6 26
12 7 7
12 8 1
12 9 19
12 10 33
12 11 28
13 0 10
13 1 41
13 2 7
13 3 46
13 4 10
13 5 18
13 6 7
13 7 21
13 8 35
13 9 39
13 10 49
13 11 30
13 12 37
14 0 19
14 1 34
14 2 29
14 3 29
14 4 51
14 5 12
14 6 36
14 7 17
14 8 17
14 9 47
14 10 13
14 11 54
14 12 1
14 13 8
15 0 13
15 1 35
15 2 3
15 3 49
15 4 55
15 5 14
15 6 27
15 7 29
15 8 1
15 9 50
15 10 24
15 11 57
15 12 58
15 13 30
15 14 44
16 0 46
16 1 20
16 2 42
16 3 19
16 4 16
16 5 52
16 6 12
16 7 49
16 8 39
16 9 48
16 10 22
16 11 58
16 12 54
16 13 41
16 14 3
16 15 7
17 0 17
17 1 20
17 2 7
17 3 19
17 4 5
17 5 32
17 6 21
17 7 17
17 8 32
17 9 34
17 10 29
17 11 3
17 12 21
17 13 24
17 14 15
17 15 7
17 16 16
18 0 48
18 1 52
18 2 20
18 3 56
18 4 4
18 5 34
18 6 49
18 7 11
18 8 26
18 9 41
18 10 10
18 11 34
18 12 10
18 13 38
18 14 34
18 15 52
18 16 30
18 17 55
19 0 52
19 1 32
19 2 39
19 3 36
19 4 23
19 5 30
19 6 14
19 7 22
19 8 47
19 9 8
19 10 11
19 11 42
19 12 18
19 13 28
19 14 28
19 15 9
19 16 53
19 17 1
19 18 54
20 0 14
20 1 1
20 2 55
20 3 56
20 4 1
20 5 33
20 6 36
20 7 19
20 8 11
20 9 32
20 10 20
20 11 43
20 12 48
20 13 22
20 14 3
20 15 21
20 16 44
20 17 34
20 18 28
20 19 18
21 0 49
21 1 56
21 2 38
21 3 40
21 4 36
21 5 45
21 6 55
21 7 55
21 8 16
21 9 2
21 10 5
21 11 14
21 12 44
21 13 38
21 14 51
21 15 37
21 16 30
21 17 15
21 18 15
21 19 42
21 20 18
22 0 37
22 1 12
22 2 22
22 3 44
22 4 27
22 5 37
22 6 39
22 7 56
22 8 32
22 9 10
22 10 1
22 11 11
22 12 40
22 13 24
22 14 17
22 15 16
22 16 12
22 17 13
22 18 17
22 19 36
22 20 25
22 21 4
23 0 52
23 1 32
23 2 39
23 3 25
23 4 40
23 5 43
23 6 50
23 7 48
23 8 9
23 9 41
23 10 24
23 11 2
23 12 20
23 13 40
23 14 16
23 15 26
23 16 51
23 17 34
23 18 10
23 19 40
23 20 40
23 21 20
23 22 22
24 0 57
24 1 39
24 2 24
24 3 47
24 4 45
24 5 21
24 6 53
24 7 50
24 8 46
24 9 7
24 10 38
24 11 43
24 12 18
24 13 40
24 14 14
24 15 48
24 16 30
24 17 46
24 18 48
24 19 30
24 20 5
24 21 24
24 22 19
24 23 31
25 0 25
25 1 45
25 2 56
25 3 45
25 4 20
25 5 9
25 6 42
25 7 53
25 8 39
25 9 9
25 10 55
25 11 29
25 12 39
25 13 57
25 14 4
25 15 25
25 16 46
25 17 52
25 18 25
25 19 38
25 20 21
25 21 43
25 22 26
25 23 47
25 24 13
26 0 36
26 1 42
26 2 58
26 3 10
26 4 32
26 5 54
26 6 57
26 7 11
26 8 1
26 9 13
26 10 24
26 11 24
26 12 54
26 13 55
26 14 54
26 15 23
26 16 53
26 17 41
26 18 17
26 19 21
26 20 17
26 21 51
26 22 45
26 23 9
26 24 3
26 25 24
27 0 32
27 1 15
27 2 50
27 3 24
27 4 45
27 5 18
27 6 36
27 7 46
27 8 37
27 9 24
27 10 7
27 11 4
27 12 31
27 13 41
27 14 17
27 15 1
27 16 9
27 17 53
27 18 32
27 19 40
27 20 7
27 21 23
27 22 17
27 23 20
27 24 31
27 25 33
27 26 55
28 0 52
28 1 26
28 2 13
28 3 43
28 4 6
28 5 14
28 6 19
28 7 11
28 8 34
28 9 26
28 10 20
28 11 3
28 12 31
28 13 10
28 14 57
28 15 12
28 16 26
28 17 38
28 18 10
28 19 41
28 20 19
28 21 22
28 22 24
28 23 47
28 24 23
28 25 31
28 26 3
28 27 5
29 0 56
29 1 10
29 2 53
29 3 32
29 4 9
29 5 7
29 6 25
29 7 34
29 8 38
29 9 29
29 10 17
29 11 14
29 12 37
29 13 29
29 14 55
29 15 45
29 16 23
29 17 34
29 18 56
29 19 52
29 20 37
29 21 34
29 22 41
29 23 57
29 24 16
29 25 3
29 26 45
29 27 6
29 28 7
30 0 47
30 1 36
30 2 46
30 3 57
30 4 5
30 5 48
30 6 43
30 7 54
30 8 54
30 9 6
30 10 58
30 11 47
30 12 16
30 13 6
30 14 18
30 15 11
30 16 50
30 17 31
30 18 32
30 19 29
30 20 25
30 21 4
30 22 32
30 23 50
30 24 38
30 25 12
30 26 47
30 27 47
30 28 55
30 29 56
31 0 37
31 1 15
31 2 28
31 3 6
31 4 54
31 5 55
31 6 17
31 7 16
31 8 37
31 9 36
31 10 42
31 11 8
31 12 28
31 13 29
31 14 3
31 15 41
31 16 37
31 17 34
31 18 58
31 19 4
31 20 13
31 21 25
31 22 4
31 23 25
31 24 5
31 25 47
31 26 31
31 27 5
31 28 5
31 29 36
31 30 2
32 0 49
32 1 44
32 2 20
32 3 15
32 4 56
32 5 18
32 6 13
32 7 17
32 8 30
32 9 2
32 10 24
32 11 17
32 12 52
32 13 53
32 14 45
32 15 4
32 16 46
32 17 43
32 18 45
32 19 11
32 20 55
32 21 6
32 22 5
32 23 55
32 24 24
32 25 14
32 26 22
32 27 30
32 28 4
32 29 10
32 30 46
32 31 41
33 0 51
33 1 13
33 2 50
33 3 19
33 4 52
33 5 17
33 6 49
33 7 19
33 8 55
33 9 42
33 10 8
33 11 46
33 12 54
33 13 44
33 14 30
33 15 38
33 16 35
33 17 39
33 18 56
33 19 48
33 20 38
33 21 13
33 22 19
33 23 53
33 24 21
33 25 51
33 26 31
33 27 50
33 28 58
33 29 17
33 30 39
33 31 58
33 32 3
34 0 28
34 1 56
34 2 33
34 3 37
34 4 7
34 5 16
34 6 39
34 7 48
34 8 41
34 9 58
34 10 51
34 11 44
34 12 26
34 13 12
34 14 26
34 15 42
34 16 20
34 17 27
34 18 38
34 19 36
34 20 32
34 21 51
34 22 27
34 23 23
34 24 17
34 25 56
34 26 56
34 27 31
34 28 36
34 29 36
34 30 57
34 31 28
34 32 55
34 33 20
35 0 55
35 1 44
35 2 8
35 3 11
35 4 51
35 5 5
35 6 35
35 7 25
35 8 2
35 9 40
35 10 36
35 11 45
35 12 43
35 13 48
35 14 44
35 15 29
35 16 6
35 17 56
35 18 23
35 19 4
35 20 4
35 21 12
35 22 25
35 23 56
35 24 44
35 25 2
35 26 45
35 27 46
35 28 58
35 29 21
35 30 16
35 31 53
35 32 39
35 33 24
35 34 6
36 0 14
36 1 6
36 2 5
36 3 45
36 4 46
36 5 54
36 6 32
36 7 19
36 8 18
36 9 41
36 10 30
36 11 18
36 12 53
36 13 30
36 14 20
36 15 33
36 16 34
36 17 22
36 18 47
36 19 12
36 20 11
36 21 53
36 22 16
36 23 54
36 24 53
36 25 53
36 26 35
36 27 39
36 28 38
36 29 31
36 30 9
36 31 28
36 32 49
36 33 22
36 34 26
36 35 43
37 0 11
37 1 33
37 2 29
37 3 28
37 4 50
37 5 43
37 6 1
37 7 4
37 8 58
37 9 29
37 10 38
37 11 42
37 12 18
37 13 35
37 14 20
37 15 46
37 16 24
37 17 8
37 18 14
37 19 12
37 20 3
37 21 24
37 22 42
37 23 10
37 24 23
37 25 15
37 26 39
37 27 41
37 28 1
37 29 50
37 30 45
37 31 23
37 32 16
37 33 39
37 34 48
37 35 56
37 36 14
